
Gurobi 7.5.2 (linux64, Python) logging started Sat Apr 13 16:24:23 2019

Academic license - for non-commercial use only

Gurobi 7.5.2 (linux64, Python) logging started Sat Apr 13 16:30:35 2019

Academic license - for non-commercial use only

Gurobi 7.5.2 (linux64, Python) logging started Sat Apr 13 16:31:19 2019

Academic license - for non-commercial use only

Gurobi 7.5.2 (linux64, Python) logging started Sat Apr 13 16:32:08 2019

Academic license - for non-commercial use only
